c description: Random 3-CNF over 14 variables and 56 clauses
p cnf 14 56
5 -6 -8 0
-3 -12 -13 0
-3 -7 12 0
1 -5 -11 0
1 -12 -13 0
-6 8 -12 0
4 12 -13 0
-5 -7 10 0
3 5 7 0
1 -2 4 0
-4 -5 -13 0
-4 -5 14 0
-2 -5 14 0
-10 11 14 0
9 10 -13 0
-4 9 -11 0
2 -10 13 0
-5 -6 7 0
9 11 12 0
-5 -12 13 0
-9 13 14 0
-4 -9 -13 0
-1 -3 -12 0
5 -6 8 0
-1 7 11 0
-2 11 -14 0
-2 5 14 0
-1 4 -8 0
11 12 -13 0
9 -10 -12 0
3 -5 7 0
-1 -4 7 0
5 8 -13 0
-2 -3 9 0
1 -4 10 0
1 3 -4 0
5 6 -14 0
1 11 -14 0
-2 -4 -8 0
5 -7 8 0
-2 -12 -13 0
-4 -5 9 0
5 -12 14 0
3 4 5 0
9 10 -14 0
-3 -6 -7 0
1 13 -14 0
-1 10 12 0
4 -6 8 0
-7 -8 9 0
1 -9 -13 0
-4 -9 12 0
-1 -7 12 0
1 9 12 0
-8 10 14 0
-6 8 14 0